unknown
(model
; cardinality of BoundSet is 5
(declare-sort BoundSet 0)
; rep: @uc_BoundSet_0
; rep: @uc_BoundSet_1
; rep: @uc_BoundSet_2
; rep: @uc_BoundSet_3
; rep: @uc_BoundSet_4
; cardinality of UnboundSet is 1
(declare-sort UnboundSet 0)
(declare-fun groundTerm_6 () UnboundSet)
(define-fun IsSnowboarding ((BOUND_VARIABLE_539 BoundSet)) Bool (ite (= @uc_BoundSet_4 BOUND_VARIABLE_539) true (= @uc_BoundSet_0 BOUND_VARIABLE_539)))
(define-fun IsOnSmallPileOfSnow ((BOUND_VARIABLE_554 BoundSet) (BOUND_VARIABLE_555 BoundSet)) Bool true)
(define-fun IsSunnyColdDay ((BOUND_VARIABLE_539 BoundSet)) Bool true)
(define-fun IsYoung ((BOUND_VARIABLE_539 BoundSet)) Bool false)
(define-fun IsSizingUpNextJump ((BOUND_VARIABLE_554 BoundSet) (BOUND_VARIABLE_555 BoundSet)) Bool false)
)
sat
(model
; cardinality of BoundSet is 1
(declare-sort BoundSet 0)
; rep: @uc_BoundSet_0
; cardinality of UnboundSet is 1
(declare-sort UnboundSet 0)
(declare-fun groundTerm_13 () UnboundSet)
(define-fun IsSnowboarding ((BOUND_VARIABLE_610 BoundSet)) Bool true)
(define-fun IsOnSmallPileOfSnow ((BOUND_VARIABLE_617 BoundSet) (BOUND_VARIABLE_618 BoundSet)) Bool true)
(define-fun IsSunnyColdDay ((BOUND_VARIABLE_610 BoundSet)) Bool true)
(define-fun IsYoung ((BOUND_VARIABLE_610 BoundSet)) Bool true)
(define-fun IsSizingUpNextJump ((BOUND_VARIABLE_617 BoundSet) (BOUND_VARIABLE_618 BoundSet)) Bool false)
)
